benchmarks_vrp/CMT2/fixed_c_size/CMT2_0.vrp
NAME: CMT2_0
TYPE: CVRP
COMMENT: 835.26 - Cluster Nr.0
DIMENSION: 11
CAPACITY: 140
EDGE_WEIGHT_TYPE: EUC_2D
NODE_COORD_TYPE: TWOD_COORDS
NODE_COORD_SECTION: 
1 31 76
10 47 66
4 40 66
5 30 60
8 35 60
6 35 51
7 57 72
2 40 60
3 50 70
9 55 65
11 40 40
DEPOT_SECTION: 
11
-1
DEMAND_SECTION: 
6 16
4 26
11 0
2 21
1 25
3 9
7 37
8 1
10 24
5 16
9 37
EOF
