benchmarks_vrp/CMT2/fixed_c_size/CMT2_0.tour
NAME: CMT2_0 solution
TYPE: TOUR
TOUR_SECTION:
11 6 8 5 1 4 2 -1
11 9 7 3 10 -1
-1
EOF